20
20
20
30
30
30
20
20
20
20
20
20
20
20
20
30
20
20
20
20
20
20
5
20
30
20
20
20
20
20
30
20
20
20
20
20
20
20
20
5
20
20
20
20
20
20
20
20
20
20
20
30
30
20
20
20
20
20
20
20
20
20
20
30
30
30
20
20
20
